50
18198

935 232
743 505
61 745
749 350
404 518
746 859
940 413
254 444
778 862
550 336
180 288
280 399
883 482
597 544
460 372
485 472
266 386
410 132
324 917
422 301
93 43
110 984
367 553
309 905
149 485
76 660
982 104
336 264
798 578
344 333
848 604
414 938
924 684
100 75
373 283
242 635
712 984
724 54
993 21
484 21
109 296
564 623
304 869
9 687
486 280
126 537
39 837
240 297
78 914
443 441
